NAME : A-n17-k4
COMMENT : (Augerat et al, No of trucks: 5, Optimal value: 784)
TYPE : CVRP
DIMENSION : 17
EDGE_WEIGHT_TYPE : EUC_2D 
CAPACITY : 100
NODE_COORD_SECTION 
 1 456 320
 2 228 0
 3 912 0
 4 0 80
 5 114 80
 6 570 160
 7 798 160
 8 342 240
 9 684 240
 10 570 400
 11 912 400
 12 114 480
 13 228 480
 14 342 560
 15 684 560
 16 0 640
 17 798 640
DEMAND_SECTION 
1 0 
2 19 
3 21 
4 6 
5 19 
6 7 
7 12 
8 16 
9 6
DEPOT_SECTION 
 1  
 -1  
EOF 
